
Gurobi 8.0.1 (mac64, Python) logging started Thu Sep 26 16:44:02 2019

Academic license - for non-commercial use only
Optimize a model with 2 rows, 4 columns and 5 nonzeros
Variable types: 1 continuous, 3 integer (3 binary)
Coefficient statistics:
  Matrix range     [1e+00, 3e+00]
  Objective range  [1e+00, 2e+00]
  Bounds range     [1e+00, 1e+00]
  RHS range        [1e+00, 6e+00]
Found heuristic solution: objective 4.0000000

Explored 0 nodes (0 simplex iterations) in 0.00 seconds
Thread count was 1 (of 8 available processors)

Solution count 1: 4 

Optimal solution found (tolerance 1.00e-04)
Best objective 4.000000000000e+00, best bound 4.000000000000e+00, gap 0.0000%

    Variable            X 
-------------------------
           x            1 
           y            1 
           z            1 

Gurobi 8.0.1 (mac64, Python) logging started Thu Sep 26 16:51:02 2019

Academic license - for non-commercial use only
Optimize a model with 3 rows, 3 columns and 8 nonzeros
Variable types: 0 continuous, 3 integer (0 binary)
Coefficient statistics:
  Matrix range     [1e+00, 1e+00]
  Objective range  [1e+00, 1e+00]
  Bounds range     [0e+00, 0e+00]
  RHS range        [1e+00, 5e+00]
Found heuristic solution: objective 5.0000000
Presolve removed 3 rows and 3 columns
Presolve time: 0.01s
Presolve: All rows and columns removed

Explored 0 nodes (0 simplex iterations) in 0.02 seconds
Thread count was 1 (of 8 available processors)

Solution count 1: 5 

Optimal solution found (tolerance 1.00e-04)
Best objective 5.000000000000e+00, best bound 5.000000000000e+00, gap 0.0000%

    Variable            X 
-------------------------
           x            3 
           z            2 
